32      4       
10      10      10      10      
0       0       0       0       0       11      2       3       4       6       7       8       9       10      12      13      31      
10      1       1       0       1       7       5       11      15      18      25      28      30      
6       5       5       0       3       6       5       15      18      22      23      27      
1       5       0       2       2       8       16      17      18      21      22      23      26      29      
3       6       6       3       0       5       14      16      19      20      24      
1       3       0       3       4       5       14      15      17      20      29      
7       3       3       2       0       5       15      16      17      21      23      
1       4       0       5       5       4       14      15      27      28      
5       3       6       2       0       3       14      18      26      
1       0       3       5       2       3       15      17      25      
10      7       2       0       3       2       14      16      
9       6       2       10      0       2       19      22      
1       0       5       4       6       1       21      
5       0       2       4       4       1       32      
3       2       5       0       3       1       32      
8       1       0       4       4       1       32      
1       6       4       6       0       1       32      
5       7       0       2       5       1       32      
8       2       0       7       3       1       32      
6       3       0       4       3       1       32      
1       2       6       3       0       1       32      
8       10      1       0       3       1       32      
7       0       4       3       7       1       32      
6       2       7       0       8       1       32      
7       0       3       2       3       1       32      
2       0       6       2       4       1       32      
5       4       4       0       4       1       32      
4       1       0       3       8       1       32      
10      6       6       9       0       1       32      
6       2       3       0       4       1       32      
10      5       0       3       3       1       32      
0       0       0       0       0       0       
